NAME: australia-road-km-n4-k4
TYPE: CVRP
DIMENSION: 4
EDGE_WEIGHT_TYPE: EXPLICIT
EDGE_WEIGHT_FORMAT: FULL_MATRIX
EDGE_WEIGHT_UNIT_OF_MEASUREMENT: km
CAPACITY: 5
NODE_COORD_SECTION
0 -27.467834 153.019079
1 -27.456195 153.033586
2 -27.3979 153.033586
3 -27.444459 153.043787
EDGE_WEIGHT_SECTION
0.000 6.996 8.976 3.910 
5.596 0.000 6.934 3.406 
9.791 12.988 0.000 7.649 
3.944 9.018 7.600 0.000 
DEMAND_SECTION
0 0
1 1
2 1
3 1
DEPOT_SECTION
0
-1
EOF
